SCIP Status        : solving was interrupted [time limit reached]
Total Time         :    3600.01
  solving          :    3600.00
  presolving       :       0.34 (included in solving)
  reading          :       0.01
  copying          :       0.92 (32 #copies) (minimal 0.00, maximal 0.05, average 0.03)
Original Problem   :
  Problem name     : bbbenchmark/g05_80.0.cut
  Variables        : 81 (80 binary, 0 integer, 0 implicit integer, 1 continuous)
  Constraints      : 1 initial, 1 maximal
  Objective        : minimize, 1 non-zeros (abs.min = 1, abs.max = 1)
Presolved Problem  :
  Problem name     : t_bbbenchmark/g05_80.0.cut
  Variables        : 1609 (80 binary, 0 integer, 1527 implicit integer, 2 continuous)
  Constraints      : 1531 initial, 5645 maximal
  Objective        : minimize, 1 non-zeros (abs.min = 1, abs.max = 1)
  Nonzeros         : 6301 constraint, 162 clique table
Presolvers         :   ExecTime  SetupTime  Calls  FixedVars   AggrVars   ChgTypes  ChgBounds   AddHoles    DelCons    AddCons   ChgSides   ChgCoefs
  boundshift       :       0.00       0.00      0          0          0          0          0          0          0          0          0          0
  convertinttobin  :       0.00       0.00      0          0          0          0          0          0          0          0          0          0
  domcol           :       0.00       0.00      1          0          0          0          0          0          0          0          0          0
  dualagg          :       0.00       0.00      0          0          0          0          0          0          0          0          0          0
  dualcomp         :       0.00       0.00      1          0          0          0          0          0          0          0          0          0
  dualinfer        :       0.00       0.00      0          0          0          0          0          0          0          0          0          0
  dualsparsify     :       0.00       0.00      1          0          0          0          0          0          0          0          0          0
  gateextraction   :       0.00       0.00      0          0          0          0          0          0          0          0          0          0
  implics          :       0.00       0.00      2          0          0          0          0          0          0          0          0          0
  inttobinary      :       0.00       0.00      0          0          0          0          0          0          0          0          0          0
  qpkktref         :       0.00       0.00      0          0          0          0          0          0          0          0          0          0
  redvub           :       0.00       0.00      0          0          0          0          0          0          0          0          0          0
  sparsify         :       0.00       0.00      1          0          0          0          0          0          0          0          0          0
  stuffing         :       0.00       0.00      0          0          0          0          0          0          0          0          0          0
  trivial          :       0.00       0.00      4          0          0          0          0          0          0          0          0          0
  tworowbnd        :       0.00       0.00      0          0          0          0          0          0          0          0          0          0
  dualfix          :       0.00       0.00      4          0          0          0          0          0          0          0          0          0
  genvbounds       :       0.00       0.00      0          0          0          0          0          0          0          0          0          0
  probing          :       0.24       0.00      1          0          0          0          0          0          0          0          0          0
  pseudoobj        :       0.00       0.00      1          0          0          0          1          0          0          0          0          0
  symmetry         :       0.00       0.00      0          0          0          0          0          0          0          0          0          0
  vbounds          :       0.00       0.00      1          0          0          0          0          0          0          0          0          0
  varbound         :       0.00       0.00      2          0          0          0          0          0          0          0          0          0
  and              :       0.00       0.01      2          0          0          0          0          0          0          0          0          0
  linear           :       0.00       0.00      2          0          0          0          0          0          0          0          0          0
  logicor          :       0.00       0.00      0          0          0          0          0          0          0          0          0          0
  bounddisjunction :       0.00       0.00      0          0          0          0          0          0          0          0          0          0
  nonlinear        :       0.10       0.00      5          0          0          0          1          0          0       1530          0          0
  benders          :       0.00       0.00      0          0          0          0          0          0          0          0          0          0
  components       :       0.00       0.00      1          0          0          0          0          0          0          0          0          0
  root node        :          -          -      -          0          -          -         27          -          -          -          -          -
Constraints        :     Number  MaxNumber  #Separate #Propagate    #EnfoLP    #EnfoRelax  #EnfoPS    #Check   #ResProp    Cutoffs    DomReds       Cuts    Applied      Conss   Children
  benderslp        :          0          0          0          0      48451          0          0       2981          0          0          0          0          0          0          0
  integral         :          0          0          0          0      48451          0          0       2981          0          0       1692          0          0       1243      94934
  varbound         :          1          1        134      66989          0          0          0         39          0          0        758          0          0          0          0
  and              :       1527       1527      63592     334086         25          0          0         39     144505          5    1690316      10986      10603          0          0
  linear           :          3+         5        134     334085         25          0          0         37         46          2      17572          0          0          0          0
  logicor          :          0+      4111          0      90170          0          0          0          0        174        216         47          0          0          0          0
  bounddisjunction :          0+        38          0       9589          0          0          0          0          0          0          0          0          0          0          0
  benders          :          0          0          0          0         25          0          0         40          0          0          0          0          0          0          0
  countsols        :          0          0          0          0         25          0          0         40          0          0          0          0          0          0          0
  components       :          0          0          0          0          0          0          0          0          0          0          0          0          0          0          0
Constraint Timings :  TotalTime  SetupTime   Separate  Propagate     EnfoLP     EnfoPS     EnfoRelax   Check    ResProp    SB-Prop
  benderslp        :       0.02       0.00       0.00       0.00       0.02       0.00       0.00       0.00       0.00       0.00
  integral         :      48.90       0.00       0.00       0.00      48.89       0.00       0.00       0.01       0.00       0.00
  varbound         :       0.00       0.00       0.00       0.00       0.00       0.00       0.00       0.00       0.00       0.00
  and              :      52.07       0.01      34.96      16.59       0.00       0.00       0.00       0.00       0.16       0.35
  linear           :       0.57       0.00       0.03       0.49       0.00       0.00       0.00       0.01       0.00       0.04
  logicor          :       3.62       0.00       0.00       3.62       0.00       0.00       0.00       0.00       0.00       0.00
  bounddisjunction :       0.02       0.00       0.00       0.02       0.00       0.00       0.00       0.00       0.00       0.00
  benders          :       0.00       0.00       0.00       0.00       0.00       0.00       0.00       0.00       0.00       0.00
  countsols        :       0.00       0.00       0.00       0.00       0.00       0.00       0.00       0.00       0.00       0.00
  components       :       0.11       0.00       0.00       0.11       0.00       0.00       0.00       0.00       0.00       0.00
Propagators        : #Propagate   #ResProp    Cutoffs    DomReds
  dualfix          :          4          0          0          0
  genvbounds       :          0          0          0          0
  nlobbt           :          0          0          0          0
  obbt             :          0          0          0          0
  probing          :          0          0          0          0
  pseudoobj        :     225962          0          0         27
  redcost          :     124963          0          0      86731
  rootredcost      :         36          0          0          0
  symmetry         :          0          0          0          0
  vbounds          :      35148          0          0          0
Propagator Timings :  TotalTime  SetupTime   Presolve  Propagate    ResProp    SB-Prop
  dualfix          :       0.00       0.00       0.00       0.00       0.00       0.00
  genvbounds       :       0.22       0.00       0.00       0.20       0.00       0.02
  nlobbt           :       0.00       0.00       0.00       0.00       0.00       0.00
  obbt             :       0.00       0.00       0.00       0.00       0.00       0.00
  probing          :       0.24       0.00       0.24       0.00       0.00       0.00
  pseudoobj        :       0.41       0.00       0.00       0.41       0.00       0.00
  redcost          :       6.75       0.00       0.00       6.75       0.00       0.00
  rootredcost      :       0.29       0.00       0.00       0.29       0.00       0.00
  symmetry         :       0.09       0.00       0.00       0.09       0.00       0.00
  vbounds          :       0.26       0.00       0.00       0.26       0.00       0.00
Conflict Analysis  :       Time      Calls    Success    DomReds  Conflicts   Literals    Reconvs ReconvLits   Dualrays   Nonzeros   LP Iters   (pool size: [10000,10000])
  propagation      :       0.00        221        161          -        187       44.2          0        0.0          -          -          -
  infeasible LP    :       0.00          0          0          -          0        0.0          0        0.0          4       55.0          0
  bound exceed. LP :       9.02       5121       3811          -      49409       64.3          0        0.0          0        0.0      19779
  strong branching :       0.00          0          0          -          0        0.0          0        0.0          -          -          0
  pseudo solution  :       0.00          0          0          -          0        0.0          0        0.0          -          -          -
  applied globally :       0.23          -          -          0      15113       68.9          -          -          4          -          -
  applied locally  :          -          -          -          0          0        0.0          -          -          0          -          -
Separators         :   ExecTime  SetupTime      Calls  RootCalls    Cutoffs    DomReds  FoundCuts ViaPoolAdd  DirectAdd    Applied ViaPoolApp  DirectApp      Conss
  cut pool         :       3.00          -      18979        161          -          -      33468     483237          -          -          -          -          -    (maximal pool size:       1950)
  aggregation      :     262.43       0.00       4724        134          0          0         87        270          0        133        133          0          0
  > cmir           :          -          -          -          -          -          -          -        269          0        132        132          0          -
  > flowcover      :          -          -          -          -          -          -          -          1          0          1          1          0          -
  > knapsackcover  :          -          -          -          -          -          -          -          0          0          0          0          0          -
  cgmip            :       0.00       0.00          0          0          0          0          0          0          0          0          0          0          0
  clique           :       0.00       0.00        134        134          0          0          0          0          0          0          0          0          0
  closecuts        :       0.00       0.00          0          0          0          0          0          0          0          0          0          0          0
  convexproj       :       0.00       0.00          0          0          0          0          0          0          0          0          0          0          0
  disjunctive      :       0.00       0.00          0          0          0          0          0          0          0          0          0          0          0
  eccuts           :       0.00       0.00          0          0          0          0          0          0          0          0          0          0          0
  gauge            :       0.00       0.00          0          0          0          0          0          0          0          0          0          0          0
  gomory           :       0.00       0.00          0          0          0          0          0          0          0          0          0          0          0
  > gomorymi       :          -          -          -          -          -          -          -          0          0          0          0          0          -
  > strongcg       :          -          -          -          -          -          -          -          0          0          0          0          0          -
  impliedbounds    :       0.20       0.00       4724        134          0          0          3          0          0          0          0          0          0
  interlattice     :       0.00       0.00          0          0          0          0          0          0          0          0          0          0          0
  interminor       :       0.00       0.00          0          0          0          0          0          0          0          0          0          0          0
  intersub         :       1.04       0.00         80         80          0          0         80          0         80         80          0         80          0
  intobj           :       0.00       0.00          0          0          0          0          0          0          0          0          0          0          0
  mcf              :       0.01       0.00          1          1          0          0          0          0          0          0          0          0          0
  minor            :       0.00       0.00          0          0          0          0          0          0          0          0          0          0          0
  mixing           :       0.01       0.00       4725        134          0          0          0          0          0          0          0          0          0
  oddcycle         :       0.00       0.00          0          0          0          0          0          0          0          0          0          0          0
  rapidlearning    :       0.00       0.00          0          0          0          0          0          0          0          0          0          0          0
  rlt              :       0.00       0.00         10         10          0          0          0          0          0          0          0          0          0
  zerohalf         :      37.63       0.00       4211         20          0          0      33378     482967          0      93352      93352          0          0
Cutselectors       :   ExecTime  SetupTime      Calls  RootCalls   Selected     Forced   Filtered  RootSelec   RootForc   RootFilt 
  hybrid           :       0.48       0.00      17986        132     104168          0     390135        284          0         44
Pricers            :   ExecTime  SetupTime      Calls       Vars
  problem variables:       0.00          -          0          0
Branching Rules    :   ExecTime  SetupTime   BranchLP  BranchExt   BranchPS    Cutoffs    DomReds       Cuts      Conss   Children
  allfullstrong    :       0.00       0.00          0          0          0          0          0          0          0          0
  cloud            :       0.00       0.00          0          0          0          0          0          0          0          0
  distribution     :       0.00       0.00          0          0          0          0          0          0          0          0
  fullstrong       :       0.00       0.00          0          0          0          0          0          0          0          0
  inference        :       0.00       0.00          0          0          0          0          0          0          0          0
  leastinf         :       0.00       0.00          0          0          0          0          0          0          0          0
  lookahead        :       0.00       0.00          0          0          0          0          0          0          0          0
  mostinf          :       0.00       0.00          0          0          0          0          0          0          0          0
  multaggr         :       0.00       0.00          0          0          0          0          0          0          0          0
  nodereopt        :       0.00       0.00          0          0          0          0          0          0          0          0
  pscost           :       0.00       0.00          0          0          0          0          0          0          0          0
  random           :       0.00       0.00          0          0          0          0          0          0          0          0
  relpscost        :      48.72       0.00      48426          0          0          0       1692          0       1244      94934
  vanillafullstrong:       0.00       0.00          0          0          0          0          0          0          0          0
Primal Heuristics  :   ExecTime  SetupTime      Calls      Found       Best
  LP solutions     :       0.01          -          -         25         25
  relax solutions  :       0.00          -          -          0          0
  pseudo solutions :       0.00          -          -          0          0
  strong branching :       0.03          -          -          0          0
  actconsdiving    :       0.00       0.00          0          0          0
  adaptivediving   :      11.73       0.00        123          1          1
  alns             :       5.42       0.00         19          5          5
  bound            :       0.00       0.00          0          0          0
  clique           :       0.01       0.00          1          0          0
  coefdiving       :       0.00       0.00          0          0          0
  completesol      :       0.00       0.00          0          0          0
  conflictdiving   :      20.97       0.00        248          0          0
  crossover        :       0.81       0.00          6          0          0
  dins             :       0.00       0.00          0          0          0
  distributiondivin:      36.19       0.00        247          0          0
  dps              :       0.00       0.00          0          0          0
  dualval          :       0.00       0.00          0          0          0
  farkasdiving     :       0.00       0.00          0          0          0
  feaspump         :       0.58       0.00          1          1          1
  fixandinfer      :       0.00       0.00          0          0          0
  fracdiving       :      23.81       0.00        247          0          0
  gins             :       0.10       0.00          0          0          0
  guideddiving     :      20.69       0.00        247          2          2
  indicator        :       0.08       0.00          0          0          0
  indicatordiving  :       0.00       0.00          0          0          0
  intdiving        :       0.00       0.00          0          0          0
  intshifting      :       0.22       0.00         21          0          0
  linesearchdiving :      20.91       0.00        247          0          0
  localbranching   :       0.00       0.00          0          0          0
  locks            :       0.01       0.00          1          0          0
  lpface           :       0.04       0.00          0          0          0
  mpec             :     443.37       0.00         11          0          0
  multistart       :       0.00       0.00          0          0          0
  mutation         :       0.00       0.00          0          0          0
  nlpdiving        :      12.25       0.00         10          0          0
  objpscostdiving  :      69.49       0.00         93         16          1
  octane           :       0.00       0.00          0          0          0
  ofins            :       0.07       0.00          0          0          0
  oneopt           :       0.09       0.00         45          0          0
  padm             :       0.00       0.00          0          0          0
  proximity        :       0.00       0.00          0          0          0
  pscostdiving     :      26.21       0.00        247          1          1
  randrounding     :       0.64       0.00       2938          0          0
  rens             :       0.00       0.00          0          0          0
  reoptsols        :       0.00       0.00          0          0          0
  repair           :       0.00       0.00          0          0          0
  rins             :       5.52       0.00          7          0          0
  rootsoldiving    :      34.15       0.00         36          1          0
  rounding         :       0.93       0.00       3562          0          0
  shiftandpropagate:       0.00       0.00          0          0          0
  shifting         :      51.50       0.00      12107          8          8
  simplerounding   :       0.08       0.00          0          0          0
  subnlp           :      89.32       0.00          0          0          0
  trivial          :       0.00       0.00          2          2          2
  trivialnegation  :       0.00       0.00          0          0          0
  trustregion      :       0.00       0.00          0          0          0
  trysol           :       0.05       0.00          0          0          0
  twoopt           :       0.00       0.00          0          0          0
  undercover       :       2.24       0.00          1          0          0
  vbounds          :       0.00       0.00          0          0          0
  veclendiving     :      19.81       0.00        248          0          0
  zeroobj          :       0.00       0.00          0          0          0
  zirounding       :       0.54       0.00       1000          0          0
  other solutions  :          -          -          -          0          -
Diving (single)    :      Calls      Nodes   LP Iters Backtracks  Conflicts   MinDepth   MaxDepth   AvgDepth  RoundSols  NLeafSols  MinSolDpt  MaxSolDpt  AvgSolDpt
  actconsdiving    :          0          -          -          -          -          -          -          -          -          -          -          -          -
  coefdiving       :          0          -          -          -          -          -          -          -          -          -          -          -          -
  conflictdiving   :        248       7493     192220        274       8980         35         67       46.9          0          -          -          -          -
  distributiondivin:        247       5732     251984        285       3325         32         52       39.9          0          -          -          -          -
  farkasdiving     :          0          -          -          -          -          -          -          -          -          -          -          -          -
  fracdiving       :        247      23575     204272        197       2030         39        368      112.6          0          -          -          -          -
  guideddiving     :        247      20127     181818        144       2558         40        274       98.7          0          2         75         97       86.0
  indicatordiving  :          0          -          -          -          -          -          -          -          -          -          -          -          -
  linesearchdiving :        247       7118     194628        307       8046         31         69       45.3          0          -          -          -          -
  pscostdiving     :        247       6864     240017        270       6622         36         57       44.6          0          1         56         56       56.0
  veclendiving     :        248       7379     176521        260      10020         38         59       46.5          0          -          -          -          -
Diving (adaptive)  :      Calls      Nodes   LP Iters Backtracks  Conflicts   MinDepth   MaxDepth   AvgDepth  RoundSols  NLeafSols  MinSolDpt  MaxSolDpt  AvgSolDpt
  actconsdiving    :         21        579      20917         16        201         35         48       42.3          0          1         42         42       42.0
  coefdiving       :         33        991      18750         33       1303         40         58       47.2          0          -          -          -          -
  conflictdiving   :          0          -          -          -          -          -          -          -          -          -          -          -          -
  distributiondivin:          0          -          -          -          -          -          -          -          -          -          -          -          -
  farkasdiving     :          0          -          -          -          -          -          -          -          -          -          -          -          -
  fracdiving       :         10       1146       6769          5         70         56        213      133.0          0          -          -          -          -
  guideddiving     :         14       1313      10163          6        116         48        272      110.8          0          -          -          -          -
  indicatordiving  :          0          -          -          -          -          -          -          -          -          -          -          -          -
  linesearchdiving :          8        181       6419          9        237         33         48       39.2          0          -          -          -          -
  pscostdiving     :         14        409      14733         16        475         40         51       45.9          0          -          -          -          -
  veclendiving     :         23        699      17234         26        928         39         58       47.0          0          -          -          -          -
Neighborhoods      :      Calls  SetupTime  SolveTime SolveNodes       Sols       Best       Exp3  EpsGreedy        UCB TgtFixRate  Opt  Inf Node Stal  Sol  Usr Othr Actv
  rens             :          1       0.00       0.00          0          0          0    0.00000   -1.00000    0.06923      0.900    0    0    0    0    0    0    1    1
  rins             :          1       0.01       0.01          0          0          0    0.00000   -1.00000    0.56923      0.700    0    1    0    0    0    0    0    1
  mutation         :          1       0.04       0.01          1          0          0    0.00000   -1.00000    0.56836      0.700    0    1    0    0    0    0    0    1
  localbranching   :          2       0.09       0.03          3          0          0    0.00000   -1.00000    0.54533      0.550    0    2    0    0    0    0    0    1
  crossover        :          2       0.08       0.04         11          0          0    0.00000   -1.00000    0.53497      0.550    0    2    0    0    0    0    0    1
  proximity        :          2       0.09       0.07         70          0          0    0.00000   -1.00000    0.45997      0.850    0    1    0    1    0    0    0    1
  zeroobjective    :          9       0.51       4.29        968          5          5    0.00000   -1.00000    0.54636      0.440    5    1    0    3    0    0    0    1
  dins             :          1       0.02       0.01          1          0          0    0.00000   -1.00000    0.56823      0.700    0    1    0    0    0    0    0    1
  trustregion      :          0       0.00       0.00          0          0          0    0.00000   -1.00000    1.00000      0.900    0    0    0    0    0    0    0    0
Expressions        :   #IntEval  IntEvalTi   #RevProp  RevPropTi    DomReds    Cutoffs  #Estimate  EstimTime  Branching  #Simplify SimplifyTi Simplified
  pow              :          0       0.00          0       0.00          0          0          0       0.00          0          0       0.00          0
  prod             :       6320       0.01          0       0.00          0          0          0       0.00          0       4687       0.00          0
  sum              :          8       0.00          2       0.00          0          0          0       0.00          0          3       0.02          2
  var              :       5476       0.00          0       0.00          0          0          0       0.00          0      11145       0.00          0
  varidx           :          0       0.00          0       0.00          0          0          0       0.00          0          0       0.00          0
LP                 :       Time      Calls Iterations  Iter/call   Iter/sec  Time-0-It Calls-0-It    ItLimit
  primal LP        :      98.80       6859          0       0.00       0.00      98.73       6859
  dual LP          :    2090.04     109720    9635855      96.72    4610.37       4.74      10089
  lex dual LP      :       0.00          0          0       0.00          -
  barrier LP       :       0.00          0          0       0.00          -       0.00          0
  resolve instable :       0.00          0          0       0.00          -
  diving/probing LP:     250.85      10256    2076322     202.45    8277.15
  strong branching :      30.24       2003     214546     107.11    7094.78          -          -         48
    (at root node) :          -         19       9642     507.47          -
  conflict analysis:       3.58       2017      19779       9.81    5524.86
NLP relaxation     :
  solve time       :      12.22 (10 calls)
  convexity        :  nonconvex (4 linear rows, 0 convex ineq., 0 nonconvex ineq., 1527 nonlinear eq. or two-sided ineq.)
NLP Solvers        :  #Problems  ProblemTi    #Solves  SolveTime      #Iter  Time/Iter      #Okay #TimeLimit #IterLimit #LObjLimit #Interrupt  #NumError #EvalError  #OutOfMem #LicenseEr #OtherTerm   #GlobOpt    #LocOpt  #Feasible #LocInfeas #GlobInfea #Unbounded   #Unknown
  ipopt            :         12       3.19         40     455.72       2448       0.19         40          0          0          0          0          0          0          0          0          0          0          0          0         30          0          0         10
B&B Tree           :
  number of runs   :          1
  nodes            :      80701 (47467 internal, 33234 leaves)
  feasible leaves  :         25
  infeas. leaves   :         14
  objective leaves :      33194
  nodes (total)    :      80701 (47467 internal, 33234 leaves)
  nodes left       :      14229
  max depth        :         60
  max depth (total):         60
  backtracks       :      16212 (20.1%)
  early backtracks :          0 (0.0%)
  nodes exc. ref.  :          0 (0.0%)
  delayed cutoffs  :          0
  repropagations   :         20 (6 domain reductions, 0 cutoffs)
  avg switch length:       4.11
  switching time   :     113.07
Estim. Tree Size   :     161412
Estimation Tree    : 94935 nodes (80706 visited, 47467 internal, 33239 leaves, 14229 open), weight: 0.0000 completed 0.0865
Estimations        :      estim      value      trend resolution     smooth
  wbe              : 4891064781          -          -          -          -
  tree-profile     :         -1          -          -          -          -
  gap              :     476250    0.77669    0.00007         64     471543
  tree-weight      :     161412    0.00001    0.00000         64     161201
  leaf-frequency   :     161412    0.41185   -0.00002         64     165483
  ssg              :    1651493    0.86336   -0.00007         64    1650053
  open-nodes       :     161412 14229.00000   20.42409         64     161201
Root Node          :
  First LP value   : -1.00000000000000e+00
  First LP Iters   :       1045 (11611.11 Iter/sec)
  First LP Time    :       0.09
  Final Dual Bound : -9.19687582695948e-01
  Final Root Iters :       7196
  Root LP Estimate : -4.86795053441643e-01
Solution           :
  Solutions found  :         62 (46 improvements)
  First Solution   : +1.00000000000000e+05   (in run 1, after 0 nodes, 0.03 seconds, depth 0, found by <trivial>)
  Gap First Sol.   :   infinite
  Gap Last Sol.    :      32.06 %
  Primal Bound     : -5.85465216118438e-01   (in run 1, after 51817 nodes, 2318.23 seconds, depth 20, found by <alns>)
  Dual Bound       : -7.53797468354432e-01
  Gap              :      28.75 %
Integrals          :      Total       Avg%
  primal-dual      :   99853.39      27.74
  primal-ref       :          -          - (not evaluated)
  dual-ref         :          -          - (not evaluated)
